(set-info :smt-lib-version 2.6)
(set-logic QF_NIA)
(set-info :source |
Generated by: Mădălina Erașcu, Răzvan Meteș 
Generated on: 2019-04-15
Application: Wordpress16
Target solver: Z3
|)
(set-info :license "https://creativecommons.org/licenses/by/4.0/")
(set-info :category "industrial")
(set-info :minimum